=obj=                9
C0001                0
C0002                0
C0003                0
C0004                0
C0005                0
C0006                0
C0007                0
C0008                0
C0009                1
C0010                0
C0011                0
C0012                0
C0013                0
C0014                0
C0015                0
C0016                0
C0017                0
C0018                0
C0019                0
C0020                0
C0021                0
C0022                0
C0023                0
C0024                0
C0025                0
C0026                0
C0027                0
C0028                0
C0029                0
C0030                0
C0031                1
C0032                0
C0033                0
C0034                0
C0035                0
C0036                0
C0037                0
C0038                0
C0039                0
C0040                0
C0041                0
C0042                0
C0043                0
C0044                0
C0045                0
C0046                0
C0047                0
C0048                0
C0049                0
C0050                1
C0051                0
C0052                0
C0053                0
C0054                0
C0055                0
C0056                0
C0057                0
C0058                0
C0059                0
C0060                0
C0061                0
C0062                0
C0063                0
C0064                0
C0065                0
C0066                0
C0067                1
C0068                0
C0069                0
C0070                0
C0071                0
C0072                0
C0073                0
C0074                0
C0075                0
C0076                0
C0077                0
C0078                0
C0079                0
C0080                0
C0081                0
C0082                0
C0083                0
C0084                0
C0085                0
C0086                0
C0087                0
C0088                0
C0089                0
C0090                0
C0091                0
C0092                0
C0093                0
C0094                0
C0095                0
C0096                0
C0097                1
C0098                0
C0099                0
C0100                0
C0101                0
C0102                0
C0103                0
C0104                0
C0105                0
C0106                0
C0107                0
C0108                0
C0109                0
C0110                0
C0111                0
C0112                0
C0113                1
C0114                0
C0115                0
C0116                0
C0117                0
C0118                0
C0119                0
C0120                0
C0121                0
C0122                0
C0123                0
C0124                0
C0125                0
C0126                0
C0127                0
C0128                0
C0129                0
C0130                0
C0131                0
C0132                0
C0133                0
C0134                0
C0135                0
C0136                0
C0137                1
C0138                0
C0139                0
C0140                0
C0141                0
C0142                0
C0143                0
C0144                0
C0145                0
C0146                0
C0147                0
C0148                0
C0149                0
C0150                0
C0151                0
C0152                0
C0153                0
C0154                0
C0155                0
C0156                1
C0157                0
C0158                0
C0159                0
C0160                0
C0161                0
C0162                0
C0163                0
C0164                0
C0165                0
C0166                0
C0167                0
C0168                0
C0169                0
C0170                0
C0171                0
C0172                0
C0173                0
C0174                0
C0175                0
C0176                0
C0177                0
C0178                1
C0179                0
C0180                0
C0181                0
C0182                0
C0183                0
C0184                0
C0185                0
C0186                0
C0187                0
C0188                0
C0189                0
C0190                0
C0191                0
C0192                0
C0193                0
C0194                0
C0195                0
C0196                0
C0197                0
C0198                0
C0199                0
C0200                1
C0201                0
C0202                0
C0203                0
C0204                0
C0205                0
C0206                0
C0207                0
C0208                0
C0209                0
C0210                0
C0211                0
C0212                0
C0213                0
C0214                0
C0215                0
C0216                0
C0217                0
C0218                0
C0219                0
C0220                0
C0221                0
C0222                0
C0223                0
C0224                0
C0225                0
C0226                0
C0227                0
C0228                0
C0229                1
C0230                0
C0231                0
C0232                0
C0233                0
C0234                0
C0235                0
C0236                0
C0237                0
C0238                0
C0239                0
C0240                0
C0241                0
C0242                0
C0243                0
C0244                0
C0245                0
C0246                0
C0247                0
C0248                1
C0249                0
C0250                0
C0251                0
C0252                0
C0253                0
C0254                0
C0255                0
C0256                0
C0257                0
C0258                0
C0259                0
C0260                0
C0261                0
C0262                0
C0263                0
C0264                0
C0265                0
C0266                0
C0267                0
C0268                0
C0269                1
C0270                0
C0271                0
C0272                0
C0273                0
C0274                0
C0275                0
C0276                0
C0277                0
C0278                0
C0279                0
C0280                0
C0281                0
C0282                0
C0283                0
C0284                0
C0285                0
C0286                0
C0287                0
C0288                0
C0289                0
C0290                0
C0291                0
C0292                1
C0293                0
C0294                0
C0295                0
C0296                0
C0297                0
C0298                0
C0299                0
C0300                0
C0301                0
C0302                0
C0303                0
C0304                0
C0305                0
C0306                0
C0307                0
C0308                0
C0309                1
C0310                0
C0311                0
C0312                0
C0313                0
C0314                0
C0315                0
C0316                0
C0317                0
C0318                0
C0319                0
C0320                0
C0321                0
C0322                0
C0323                0
C0324                0
C0325                0
C0326                0
C0327                0
C0328                0
C0329                0
C0330                0
C0331                0
C0332                0
C0333                0
C0334                0
C0335                0
C0336                1
C0337                0
C0338                0
C0339                0
C0340                0
C0341                0
C0342                0
C0343                0
C0344                0
C0345                0
C0346                0
C0347                0
C0348                0
C0349                0
C0350                0
C0351                0
C0352                0
C0353                0
C0354                0
C0355                1
C0356                0
C0357                0
C0358                0
C0359                0
C0360                0
C0361                0
C0362                0
C0363                0
C0364                0
C0365                0
C0366                0
C0367                0
C0368                0
C0369                0
C0370                0
C0371                0
C0372                0
C0373                0
C0374                0
C0375                0
C0376                0
C0377                0
C0378                0
C0379                0
C0380                0
C0381                1
C0382                0
C0383                0
C0384                0
C0385                0
C0386                0
C0387                0
C0388                0
C0389                0
C0390                0
C0391                0
C0392                0
C0393                0
C0394                0
C0395                0
C0396                0
C0397                0
C0398                0
C0399                0
C0400                0
C0401                1
C0402                0
C0403                0
C0404                0
C0405                0
C0406                0
C0407                0
C0408                0
C0409                0
C0410                0
C0411                0
C0412                0
C0413                0
C0414                0
C0415                0
C0416                0
C0417                0
C0418                0
C0419                0
C0420                1
C0421                0
C0422                0
C0423                0
C0424                0
C0425                0
C0426                0
C0427                0
C0428                0
C0429                0
C0430                0
C0431                0
C0432                0
C0433                0
C0434                0
C0435                0
C0436                0
C0437                0
C0438                0
C0439                0
C0440                0
C0441                0
C0442                0
C0443                0
C0444                0
C0445                0
C0446                0
C0447                0
C0448                0
C0449                1
C0450                0
C0451                0
C0452                0
C0453                0
C0454                0
C0455                0
C0456                0
C0457                0
C0458                0
C0459                0
C0460                0
C0461                0
C0462                0
C0463                0
C0464                0
C0465                0
C0466                1
C0467                0
C0468                0
C0469                0
C0470                0
C0471                0
C0472                0
C0473                0
C0474                0
C0475                0
C0476                0
C0477                0
C0478                0
C0479                0
C0480                0
C0481                0
C0482                0
C0483                0
C0484                0
C0485                0
C0486                0
C0487                0
C0488                1
C0489                0
C0490                0
C0491                0
C0492                0
C0493                0
C0494                0
C0495                0
C0496                0
C0497                0
C0498                0
C0499                0
C0500                0
C0501                0
C0502                0
C0503                0
C0504                0
C0505                0
C0506                0
C0507                0
C0508                0
C0509                0
C0510                0
C0511                0
C0512                0
C0513                0
C0514                1
C0515                0
C0516                0
C0517                0
C0518                0
C0519                0
C0520                0
C0521                0
C0522                0
C0523                0
C0524                0
C0525                0
C0526                0
C0527                0
C0528                0
C0529                1
C0530                0
C0531                0
C0532                0
C0533                0
C0534                0
C0535                0
C0536                0
C0537                0
C0538                0
C0539                0
C0540                0
C0541                0
C0542                0
C0543                0
C0544                0
C0545                0
C0546                0
C0547                0
C0548                0
C0549                0
C0550                0
C0551                0
C0552                0
C0553                0
C0554                1
C0555                0
C0556                0
C0557                0
C0558                0
C0559                0
C0560                0
C0561                0
C0562                0
C0563                0
C0564                0
C0565                0
C0566                0
C0567                0
C0568                0
C0569                0
C0570                0
C0571                0
C0572                0
C0573                0
C0574                0
C0575                1
C0576                0
C0577                0
C0578                0
C0579                0
C0580                0
C0581                0
C0582                0
C0583                0
C0584                0
C0585                0
C0586                0
C0587                0
C0588                0
C0589                0
C0590                0
C0591                0
C0592                0
C0593                0
C0594                0
C0595                0
C0596                0
C0597                0
C0598                0
C0599                0
C0600                0
C0601                1
C0602                0
C0603                0
C0604                0
C0605                0
C0606                0
C0607                0
C0608                0
C0609                0
C0610                0
C0611                0
C0612                0
C0613                0
C0614                0
C0615                0
C0616                0
C0617                0
C0618                0
C0619                0
C0620                1
C0621                0
C0622                0
C0623                0
C0624                0
C0625                0
C0626                0
C0627                0
C0628                0
C0629                0
C0630                0
C0631                0
C0632                0
C0633                0
C0634                0
C0635                0
C0636                0
C0637                0
C0638                0
C0639                0
C0640                1
C0641                0
C0642                0
C0643                0
C0644                0
C0645                0
C0646                0
C0647                0
C0648                0
C0649                0
C0650                0
C0651                0
C0652                0
C0653                0
C0654                0
C0655                0
C0656                0
C0657                0
C0658                0
C0659                0
C0660                0
C0661                0
C0662                0
C0663                0
C0664                0
C0665                0
C0666                0
C0667                0
C0668                1
C0669                0
C0670                0
C0671                0
C0672                0
C0673                0
C0674                0
C0675                0
C0676                0
C0677                0
C0678                0
C0679                0
C0680                0
C0681                0
C0682                0
C0683                0
C0684                0
C0685                0
C0686                0
C0687                0
C0688                0
C0689                1
C0690                0
C0691                0
C0692                0
C0693                0
C0694                0
C0695                0
C0696                0
C0697                0
C0698                0
C0699                0
C0700                0
C0701                0
C0702                0
C0703                0
C0704                0
C0705                0
C0706                0
C0707                0
C0708                1
C0709                0
C0710                0
C0711                0
C0712                0
C0713                0
C0714                0
C0715                0
C0716                0
C0717                0
C0718                0
C0719                0
C0720                0
C0721                0
C0722                0
C0723                0
C0724                0
C0725                0
C0726                0
C0727                0
C0728                0
C0729                0
C0730                0
C0731                0
C0732                0
C0733                0
C0734                1
C0735                0
C0736                0
C0737                0
C0738                0
C0739                0
C0740                0
C0741                0
C0742                0
C0743                0
C0744                0
C0745                0
C0746                0
C0747                0
C0748                0
C0749                0
C0750                0
C0751                0
C0752                0
C0753                0
C0754                0
C0755                1
C0756                0
C0757                0
C0758                0
C0759                0
C0760                0
C0761                0
C0762                0
C0763                0
C0764                0
C0765                0
C0766                0
C0767                0
C0768                0
C0769                0
C0770                0
C0771                1
C0772                1
C0773                1
C0774                1
C0775                1
C0776                1
C0777                1
C0778                1
C0779                1
C0780                0
C0781                0
C0782                0
C0783                0
C0784                0
C0785                0
C0786                0
C0787                0
C0788                0
C0789                0
C0790                0
C0791                0
C0792                0
